(set-logic HORN)
(set-info :source |
    Benchmark: C_VC
    Output by Princess (http://www.philipp.ruemmer.org/princess.shtml)
|)
(set-info :status unknown)
(declare-fun inv_main3 (Int Int) Bool)
(declare-fun inv_main8 (Int Int) Bool)
(declare-fun inv_main9 (Int Int) Bool)
(assert (forall ((var0 Int)) (forall ((var1 Int)) (inv_main3 var0 var1 ) ) ) )
(assert (forall ((var0 Int)) (forall ((var1 Int)) (or (not (and (inv_main8 var1 var0 ) (not (<= 0 (+ (* (- 1) var1 ) (- 1) ) ) ) ) ) (inv_main9 var1 var0 ) ) ) ) )
(assert (forall ((var0 Int)) (forall ((var1 Int)) (forall ((var2 Int)) (or (not (and (inv_main3 var1 var0 ) (and (<= 0 (+ (+ var2 1000 ) (- 1) ) ) (<= 0 (+ (+ 1000000 (* (- 1) var2 ) ) (- 1) ) ) ) ) ) (inv_main8 (- 50) var2 ) ) ) ) ) )
(assert (forall ((var0 Int)) (forall ((var1 Int)) (or (not (and (inv_main8 var1 var0 ) (<= 0 (+ (* (- 1) var1 ) (- 1) ) ) ) ) (inv_main8 (+ var1 var0 ) (+ var0 1 ) ) ) ) ) )
(assert (forall ((var0 Int)) (forall ((var1 Int)) (not (and (inv_main9 var1 var0 ) (not (<= 0 (+ var0 (- 1) ) ) ) ) ) ) ) )
(check-sat)
